c NeuroCodeBench 2.0 CNF formula with verdict Unsat
p cnf 5 30
-1 -5 -2 3 4 0
1 -4 5 -2 -3 0
1 4 2 -5 -3 0
1 -4 5 -2 3 0
-1 -5 2 -3 -4 0
1 4 2 -5 3 0
-1 5 2 -4 -3 0
1 -4 -5 -2 -3 0
-1 5 -2 4 0
-1 5 2 -4 3 0
1 -4 5 2 -3 0
1 -4 -5 -2 3 0
1 4 -2 -3 5 0
1 -4 5 2 3 0
-1 -5 -2 -3 -4 0
-1 -5 2 3 -4 0
-1 5 -2 -4 -3 0
-1 5 -2 -4 3 0
1 -4 -5 2 -3 0
-1 5 2 4 0
1 -4 -5 2 3 0
-1 -5 2 -3 4 0
1 4 -2 3 5 0
1 4 2 5 -3 0
-1 -5 -2 3 -4 0
1 4 -2 -3 -5 0
1 4 2 5 3 0
-1 -5 -2 -3 4 0
-1 -5 2 3 4 0
1 4 -2 3 -5 0
